c
c start with comments
c
p cnf 52 36
20 -10 -11 0
25 3 -33 -35 0
53 52 -28 6 38 0
38 -11 -8 52 0
5 -45 0
-21 -15 -6 -34 0
43 -30 0
-19 14 0
38 12 46 47 -9 0
-8 -24 -26 50 -11 0
29 -40 0
10 -54 41 0
18 -51 0
-36 -4 0
40 37 0
-23 6 51 0
24 16 -37 0
30 -52 0
-39 32 -43 15 0
52 1 -37 3 -12 0
-21 -31 -50 0
44 49 0
-10 47 4 0
-23 26 12 0
2 -5 0
-2 19 0
13 -37 25 0
22 39 0
-38 -32 0
-18 -53 0
38 46 -27 -20 -3 0
21 47 35 8 0
-7 34 0
-13 23 -27 0
48 6 28 12 20 0
-48 25 8 -27 -14 0